n = 50;
C = 239;
w = [489,425,43,220,308,163,436,209,98,464,235,164,398,245,52,172,74,247,75,240,159,112,444,308,53,344,196,378,120,277,490,26,11,155,283,26,188,329,246,180,202,98,133,127,410,457,350,481,411,237];
p = [299,12,415,393,144,477,266,60,40,108,299,375,403,116,253,448,487,443,14,154,342,140,391,80,442,425,417,429,372,305,304,69,77,364,479,459,244,446,41,217,78,36,295,246,1,131,20,457,193,43];
